25 40
1 2 1
1 6 2
2 3 2
2 7 1
3 4 1
3 8 5
4 5 4
4 9 4
5 10 2
6 7 5
6 11 3
7 8 1
7 12 5
8 9 3
8 13 4
9 10 1
9 14 3
10 15 4
11 12 2
11 16 4
12 13 4
12 17 2
13 14 5
13 18 5
14 15 2
14 19 1
15 20 4
16 17 3
16 21 4
17 18 2
17 22 3
18 19 5
18 23 1
19 20 4
19 24 3
20 25 5
21 22 1
22 23 3
23 24 3
24 25 1
